; benchmark generated from python API
(set-info :status unknown)
(declare-datatypes ((RealState 0)) (((RMk1 (rval1 Real)) (RMk2 (rval2 Real)))))
 (assert
 (forall ((|v9:0| Real) )(exists ((|v8:1_st| RealState) (val!35 Real) )(forall ((|v7:2| Real) )(exists ((|v6:3_st| RealState) (val!36 Real) )(forall ((|v5:4| Real) )(exists ((|v4:5_st| RealState) (val!37 Real) )(forall ((|v3:6| Real) )(exists ((|v2:7_st| RealState) (val!38 Real) )(forall ((|v1:8| Real) )(exists ((|v0:9_st| RealState) (val!39 Real) )(let ((?x629 (- 11.0)))
 (let ((?x358 (- 17.0)))
 (let ((?x22 (* ?x358 |v3:6|)))
 (let (($x1017 (<= (+ (+ (* (- 15.0) (rval2 |v8:1_st|)) (* (- 6.0) |v5:4|)) ?x22) ?x629)))
 (let ((?x475 (- 19.0)))
 (let ((?x320 (+ (+ (* 17.0 (rval2 |v6:3_st|)) (* ?x629 (rval2 |v4:5_st|))) (* (- 15.0) (rval2 |v6:3_st|)))))
 (let ((?x511 (- 10.0)))
 (let (($x723 (<= (+ (+ (* ?x511 |v7:2|) (* 11.0 (rval2 |v6:3_st|))) (* 15.0 |v5:4|)) ?x511)))
 (let ((?x1223 (+ (+ (* 10.0 |v1:8|) (* (- 3.0) |v3:6|)) (* (- 1.0) (rval2 |v2:7_st|)))))
 (let (($x14 (<= (+ (+ ?x22 (* (- 1.0) (rval2 |v4:5_st|))) (* 5.0 (rval2 |v6:3_st|))) 19.0)))
 (let ((?x321 (+ (+ (* 4.0 |v1:8|) (* (- 5.0) |v3:6|)) (* (- 12.0) (rval2 |v8:1_st|)))))
 (let ((?x507 (- 8.0)))
 (let ((?x578 (rval2 |v4:5_st|)))
 (let ((?x181 (- 1.0)))
 (let ((?x54 (* ?x181 ?x578)))
 (let ((?x763 (- 16.0)))
 (let (($x350 (and (<= (+ (+ (* 7.0 (rval2 |v8:1_st|)) |v9:0|) (* 3.0 |v5:4|)) ?x763) (<= (+ (+ (* 11.0 (rval2 |v8:1_st|)) (* 11.0 |v7:2|)) ?x54) ?x507))))
 (let (($x542 (or (or $x350 (or (<= ?x321 2.0) $x14)) (and (and (<= ?x1223 19.0) $x723) (or (<= ?x320 ?x475) $x1017)))))
 (let ((?x450 (- 20.0)))
 (let (($x547 (<= (+ (+ (* (- 9.0) |v9:0|) (* 18.0 |v7:2|)) (* ?x629 (rval2 |v2:7_st|))) ?x450)))
 (let (($x898 (<= (+ (+ (* 17.0 |v7:2|) (* 9.0 |v9:0|)) (* (- 6.0) |v9:0|)) ?x475)))
 (let ((?x972 (- 12.0)))
 (let ((?x1160 (+ (+ (* (- 3.0) (rval2 |v6:3_st|)) (* 9.0 (rval2 |v8:1_st|))) (* ?x358 (rval2 |v0:9_st|)))))
 (let (($x439 (<= (+ (+ ?x54 (* (- 14.0) (rval2 |v2:7_st|))) (* (- 5.0) ?x578)) ?x763)))
 (let (($x485 (<= (+ (+ (* (- 2.0) |v7:2|) (* ?x763 |v7:2|)) (* ?x475 (rval2 |v0:9_st|))) 2.0)))
 (let ((?x135 (+ (+ (* (- 18.0) |v3:6|) (* (- 3.0) ?x578)) (* (- 2.0) |v9:0|))))
 (let ((?x936 (+ (+ (* 19.0 |v7:2|) (* 3.0 (rval2 |v8:1_st|))) (* ?x181 (rval2 |v6:3_st|)))))
 (let (($x265 (<= (+ (+ (* 9.0 |v1:8|) (* (- 5.0) (rval2 |v2:7_st|))) (* 7.0 |v9:0|)) 17.0)))
 (let ((?x423 (- 15.0)))
 (let (($x781 (<= (+ (+ (* ?x511 (rval2 |v2:7_st|)) (* 11.0 |v7:2|)) (* ?x511 (rval2 |v8:1_st|))) ?x423)))
 (let ((?x147 (- 18.0)))
 (let ((?x325 (+ (+ (* (- 5.0) (rval2 |v8:1_st|)) (* 5.0 |v7:2|)) (* ?x450 (rval2 |v0:9_st|)))))
 (let ((?x571 (+ (+ (* 11.0 (rval2 |v6:3_st|)) (* ?x475 |v9:0|)) (* (- 3.0) (rval2 |v2:7_st|)))))
 (let (($x679 (<= (+ (+ (* 8.0 |v3:6|) (* ?x423 |v7:2|)) (* (- 6.0) |v5:4|)) ?x450)))
 (let ((?x160 (- 9.0)))
 (let ((?x277 (+ (+ (* 12.0 (rval2 |v2:7_st|)) (* 12.0 |v3:6|)) (* (- 6.0) (rval2 |v2:7_st|)))))
 (let (($x269 (or (and (<= ?x277 ?x160) $x679) (and (<= ?x571 13.0) (<= ?x325 ?x147)))))
 (let (($x1142 (and $x269 (and (or $x781 $x265) (or (<= ?x936 15.0) (<= ?x135 ?x181))))))
 (let (($x1071 (and $x1142 (<= (+ (+ (* ?x475 |v1:8|) (* 0.0 |v9:0|)) (* ?x181 |v3:6|)) 18.0))))
 (let (($x817 (and $x1071 (and (and $x485 (or (or $x439 (<= ?x1160 ?x972)) (or $x898 $x547))) $x542))))
 (let (($x945 (not (= |v0:9_st| (RMk1 val!39)))))
 (let (($x729 (not (= |v2:7_st| (RMk1 val!38)))))
 (let (($x655 (not (= |v4:5_st| (RMk1 val!37)))))
 (let (($x501 (not (= |v6:3_st| (RMk1 val!36)))))
 (let (($x699 (not (= |v8:1_st| (RMk1 val!35)))))
 (and $x699 $x501 $x655 $x729 $x945 $x817)))))))))))))))))))))))))))))))))))))))))))))))
 )
 )
 )
 )
 )
 )
 )
 )
 )
 )
(check-sat)
